k = 68;
b = 34;
AtomicConstraints =  [|
1, 2|
	1, 3|
	1, 56|
	1, 55|
	1, 58|
	1, 59|
	1, 65|
	2, 3|
	2, 56|
	2, 55|
	2, 58|
	2, 59|
	2, 65|
	3, 56|
	3, 55|
	3, 58|
	3, 59|
	3, 65|
	4, 3|
	4, 56|
	4, 55|
	4, 58|
	4, 59|
	4, 65|
	5, 14|
	5, 15|
	5, 16|
	5, 56|
	5, 55|
	5, 58|
	5, 59|
	5, 65|
	6, 14|
	6, 15|
	6, 16|
	6, 56|
	6, 55|
	6, 58|
	6, 66|
	6, 59|
	6, 65|
	7, 1|
	7, 2|
	7, 3|
	7, 56|
	7, 55|
	7, 58|
	7, 61|
	7, 64|
	7, 60|
	7, 59|
	7, 65|
	8, 1|
	8, 2|
	8, 3|
	8, 56|
	8, 55|
	8, 58|
	8, 61|
	8, 64|
	8, 60|
	8, 59|
	8, 65|
	9, 1|
	9, 2|
	9, 3|
	9, 56|
	9, 55|
	9, 58|
	9, 61|
	9, 64|
	9, 60|
	9, 59|
	9, 65|
	10, 1|
	10, 2|
	10, 3|
	10, 4|
	10, 56|
	10, 55|
	10, 58|
	10, 61|
	10, 64|
	10, 60|
	10, 59|
	10, 65|
	11, 1|
	11, 2|
	11, 3|
	11, 4|
	11, 5|
	11, 6|
	11, 14|
	11, 15|
	11, 16|
	11, 56|
	11, 55|
	11, 58|
	11, 66|
	11, 59|
	11, 65|
	12, 1|
	12, 2|
	12, 3|
	12, 4|
	12, 5|
	12, 6|
	12, 14|
	12, 15|
	12, 16|
	12, 56|
	12, 55|
	12, 58|
	12, 66|
	12, 59|
	12, 65|
	13, 1|
	13, 2|
	13, 3|
	13, 4|
	13, 5|
	13, 6|
	13, 14|
	13, 15|
	13, 16|
	13, 56|
	13, 55|
	13, 58|
	13, 66|
	13, 59|
	13, 65|
	14, 59|
	14, 65|
	15, 14|
	15, 58|
	15, 59|
	15, 65|
	16, 14|
	16, 15|
	16, 55|
	16, 58|
	16, 59|
	16, 65|
	17, 1|
	17, 2|
	17, 3|
	17, 4|
	17, 5|
	17, 6|
	17, 14|
	17, 15|
	17, 16|
	17, 56|
	17, 55|
	17, 58|
	17, 61|
	17, 66|
	17, 59|
	17, 65|
	18, 1|
	18, 2|
	18, 3|
	18, 4|
	18, 5|
	18, 6|
	18, 13|
	18, 14|
	18, 15|
	18, 16|
	18, 56|
	18, 55|
	18, 58|
	18, 61|
	18, 66|
	18, 59|
	18, 65|
	19, 1|
	19, 2|
	19, 3|
	19, 4|
	19, 5|
	19, 6|
	19, 12|
	19, 13|
	19, 14|
	19, 15|
	19, 16|
	19, 56|
	19, 55|
	19, 58|
	19, 66|
	19, 59|
	19, 65|
	20, 40|
	20, 21|
	20, 22|
	20, 37|
	20, 44|
	20, 39|
	20, 23|
	20, 24|
	20, 25|
	20, 48|
	20, 51|
	20, 45|
	20, 52|
	20, 26|
	20, 29|
	20, 36|
	20, 30|
	20, 32|
	42, 40|
	42, 21|
	42, 22|
	42, 49|
	42, 46|
	42, 37|
	42, 44|
	42, 39|
	42, 23|
	42, 24|
	42, 25|
	42, 48|
	42, 50|
	42, 47|
	42, 45|
	42, 52|
	42, 26|
	42, 35|
	42, 27|
	42, 36|
	42, 31|
	42, 43|
	42, 41|
	42, 32|
	37, 40|
	37, 36|
	37, 32|
	44, 40|
	44, 36|
	44, 32|
	39, 40|
	39, 21|
	39, 22|
	23, 21|
	23, 22|
	24, 21|
	24, 22|
	25, 22|
	48, 49|
	50, 49|
	47, 46|
	38, 36|
	51, 40|
	51, 37|
	51, 44|
	51, 36|
	51, 32|
	45, 40|
	45, 21|
	45, 22|
	45, 44|
	45, 39|
	45, 23|
	45, 24|
	45, 25|
	45, 36|
	45, 32|
	52, 40|
	52, 21|
	52, 22|
	52, 39|
	52, 23|
	52, 24|
	52, 25|
	52, 48|
	52, 32|
	26, 40|
	26, 21|
	26, 22|
	26, 49|
	26, 39|
	26, 23|
	26, 24|
	26, 25|
	26, 48|
	26, 50|
	35, 21|
	35, 22|
	35, 49|
	35, 23|
	35, 24|
	35, 25|
	35, 48|
	35, 50|
	27, 21|
	27, 22|
	27, 49|
	27, 24|
	27, 25|
	27, 48|
	27, 50|
	28, 40|
	28, 21|
	28, 22|
	28, 37|
	28, 44|
	28, 39|
	28, 23|
	28, 24|
	28, 51|
	28, 36|
	28, 32|
	29, 40|
	29, 21|
	29, 22|
	29, 37|
	29, 44|
	29, 39|
	29, 23|
	29, 24|
	29, 25|
	29, 48|
	29, 45|
	29, 52|
	29, 26|
	29, 36|
	29, 32|
	30, 40|
	30, 21|
	30, 22|
	30, 49|
	30, 37|
	30, 44|
	30, 39|
	30, 23|
	30, 24|
	30, 25|
	30, 48|
	30, 50|
	30, 45|
	30, 52|
	30, 26|
	30, 35|
	30, 36|
	30, 32|
	31, 40|
	31, 21|
	31, 22|
	31, 49|
	31, 44|
	31, 39|
	31, 23|
	31, 24|
	31, 25|
	31, 48|
	31, 50|
	31, 45|
	31, 52|
	31, 26|
	31, 35|
	31, 27|
	31, 36|
	31, 32|
	43, 40|
	43, 21|
	43, 22|
	43, 49|
	43, 46|
	43, 39|
	43, 23|
	43, 24|
	43, 25|
	43, 48|
	43, 50|
	43, 47|
	43, 52|
	43, 26|
	43, 35|
	43, 27|
	43, 36|
	43, 32|
	41, 40|
	41, 21|
	41, 22|
	41, 49|
	41, 46|
	41, 39|
	41, 23|
	41, 24|
	41, 25|
	41, 48|
	41, 50|
	41, 47|
	41, 26|
	41, 35|
	41, 27|
	41, 32|
	33, 40|
	33, 21|
	33, 22|
	33, 37|
	33, 44|
	33, 39|
	33, 23|
	33, 38|
	33, 51|
	33, 28|
	33, 36|
	33, 32|
	53, 40|
	53, 21|
	53, 22|
	53, 37|
	53, 44|
	53, 39|
	53, 23|
	53, 24|
	53, 25|
	53, 38|
	53, 51|
	53, 45|
	53, 28|
	53, 36|
	53, 32|
	34, 40|
	34, 21|
	34, 22|
	34, 37|
	34, 44|
	34, 39|
	34, 23|
	34, 24|
	34, 25|
	34, 51|
	34, 45|
	34, 52|
	34, 28|
	34, 29|
	34, 36|
	34, 32|
	56, 55|
	56, 58|
	56, 59|
	56, 65|
	55, 58|
	55, 59|
	55, 65|
	58, 59|
	58, 65|
	54, 40|
	54, 20|
	54, 42|
	54, 21|
	54, 22|
	54, 49|
	54, 46|
	54, 37|
	54, 44|
	54, 39|
	54, 23|
	54, 24|
	54, 25|
	54, 48|
	54, 50|
	54, 47|
	54, 38|
	54, 51|
	54, 45|
	54, 52|
	54, 26|
	54, 35|
	54, 27|
	54, 28|
	54, 29|
	54, 36|
	54, 30|
	54, 31|
	54, 43|
	54, 41|
	54, 32|
	54, 33|
	54, 53|
	54, 34|
	54, 66|
	54, 59|
	54, 65|
	64, 61|
	60, 61|
	60, 64|
	68, 1|
	68, 2|
	68, 3|
	68, 4|
	68, 5|
	68, 6|
	68, 14|
	68, 15|
	68, 16|
	68, 40|
	68, 20|
	68, 42|
	68, 21|
	68, 22|
	68, 49|
	68, 46|
	68, 37|
	68, 44|
	68, 39|
	68, 23|
	68, 24|
	68, 25|
	68, 48|
	68, 50|
	68, 47|
	68, 38|
	68, 51|
	68, 45|
	68, 52|
	68, 26|
	68, 35|
	68, 27|
	68, 28|
	68, 29|
	68, 36|
	68, 30|
	68, 31|
	68, 43|
	68, 41|
	68, 32|
	68, 33|
	68, 53|
	68, 34|
	68, 56|
	68, 55|
	68, 58|
	68, 54|
	68, 67|
	68, 62|
	68, 66|
	68, 57|
	68, 63|
	68, 59|
	68, 65|
	67, 14|
	67, 15|
	67, 16|
	67, 56|
	67, 55|
	67, 58|
	67, 66|
	67, 57|
	67, 59|
	67, 65|
	62, 14|
	62, 15|
	62, 16|
	62, 56|
	62, 55|
	62, 58|
	62, 66|
	62, 57|
	62, 59|
	62, 65|
	57, 66|
	57, 59|
	57, 65|
	63, 14|
	63, 15|
	63, 16|
	63, 40|
	63, 20|
	63, 42|
	63, 21|
	63, 22|
	63, 49|
	63, 46|
	63, 37|
	63, 44|
	63, 39|
	63, 23|
	63, 24|
	63, 25|
	63, 48|
	63, 50|
	63, 47|
	63, 38|
	63, 51|
	63, 45|
	63, 52|
	63, 26|
	63, 35|
	63, 27|
	63, 28|
	63, 29|
	63, 36|
	63, 30|
	63, 31|
	63, 43|
	63, 41|
	63, 32|
	63, 33|
	63, 53|
	63, 34|
	63, 56|
	63, 55|
	63, 58|
	63, 54|
	63, 66|
	63, 57|
	63, 59|
	63, 65|];
DisjunctiveConstraints =  [|5, 6, 5, 4|
	5, 14, 48, 5|
	5, 15, 49, 5|
	6, 14, 6, 48|
	6, 15, 6, 49|
	6, 16, 6, 50|
	6, 66, 32, 6|
	8, 9, 8, 7|
	9, 10, 9, 8|
	10, 4, 10, 38|
	12, 11, 12, 13|
	17, 13, 47, 17|
	18, 12, 46, 18|
	18, 13, 18, 47|
	18, 19, 18, 17|
	19, 11, 45, 19|
	19, 12, 19, 46|
	20, 26, 60, 20|
	42, 46, 12, 42|
	42, 47, 13, 42|
	40, 21, 40, 32|
	21, 22, 21, 40|
	44, 39, 44, 37|
	39, 23, 39, 44|
	23, 24, 23, 39|
	24, 25, 24, 23|
	25, 48, 25, 24|
	48, 50, 48, 25|
	52, 26, 52, 45|
	26, 35, 26, 52|
	35, 27, 35, 26|
	30, 31, 30, 29|
	31, 43, 31, 30|
	43, 46, 12, 43|
	43, 47, 13, 43|
	43, 41, 43, 31|
	41, 12, 41, 46|
	33, 23, 57, 33|
	53, 25, 59, 53|
	53, 45, 11, 53|
	53, 34, 53, 33|
	34, 20, 34, 53|
	32, 40, 32, 36|
	56, 59, 56, 25|
	55, 59, 55, 25|
	58, 59, 58, 25|
	54, 12, 54, 46|
	54, 13, 54, 47|
	54, 41, 54, 7|
	68, 63, 29, 68|
	62, 38, 4, 62|];
SoftAtomicConstraints =  [|
5, 4|
6, 5|
8, 7|
9, 8|
10, 9|
11, 12|
12, 13|
18, 17|
19, 18|
42, 20|
22, 21|
49, 22|
24, 23|
25, 24|
48, 25|
35, 26|
29, 28|
30, 29|
31, 30|
43, 31|
40, 32|
53, 33|
20, 34|
27, 35|
32, 36|
44, 37|
51, 38|
23, 39|
21, 40|
41, 43|
39, 44|
52, 45|
50, 48|
46, 49|
47, 50|
45, 51|
26, 52|
34, 53|
59, 65|
62, 67|];
DirectSuccessors =  [];
